\Problem name: compact

Minimize
OBJROW: C
Subject To
ord(0,1):  - x(0,0) + x(0,1) >= 3
ord(0,2):  - x(0,1) + x(0,2) >= 6
ord(1,1):  - x(1,0) + x(1,1) >= 1
ord(1,2):  - x(1,1) + x(1,2) >= 3
ord(2,1):  - x(2,0) + x(2,1) >= 7
ord(2,2):  - x(2,1) + x(2,2) >= 9
triangle2(0,1,0):  y(0,1,0) + y(1,0,0) = 1
triangle2(0,1,1):  y(0,1,1) + y(1,0,1) = 1
triangle2(0,1,2):  y(0,1,2) + y(1,0,2) = 1
triangle2(0,2,0):  y(0,2,0) + y(2,0,0) = 1
triangle2(0,2,1):  y(0,2,1) + y(2,0,1) = 1
triangle2(0,2,2):  y(0,2,2) + y(2,0,2) = 1
triangle2(1,2,0):  y(1,2,0) + y(2,1,0) = 1
triangle2(1,2,1):  y(1,2,1) + y(2,1,1) = 1
triangle2(1,2,2):  y(1,2,2) + y(2,1,2) = 1
MCLinV(0,1,0):  x(0,0) - v(0,1,0) - x(1,0) = 1
MCLinV(1,0,0):  - x(0,0) - v(1,0,0) + x(1,0) = 3
MCLin1(0,1,0):  u(0,1,0) >= -0
MCLin2(0,1,0):  -31 y(1,0,0) - u(0,1,0) <= -0
MCLin3(0,1,0):  24 y(1,0,0) + v(0,1,0) - u(0,1,0) <= 24
MCLin4(0,1,0):  24 y(1,0,0) - u(0,1,0) >= -0
MCLin5(0,1,0):  -31 y(1,0,0) + v(0,1,0) - u(0,1,0) >= -31
MCLin6(1,0,0):  u(1,0,0) >= -0
MCLin7(1,0,0):  -28 y(0,1,0) - u(1,0,0) <= -0
MCLin8(1,0,0):  27 y(0,1,0) + v(1,0,0) - u(1,0,0) <= 27
MCLin9(1,0,0):  27 y(0,1,0) - u(1,0,0) >= -0
MCLin10(1,0,0):  -28 y(0,1,0) + v(1,0,0) - u(1,0,0) >= -28
MCLinV(0,1,1):  x(0,1) - v(0,1,1) - x(1,1) = 3
MCLinV(1,0,1):  - x(0,1) - v(1,0,1) + x(1,1) = 6
MCLin1(0,1,1):  u(0,1,1) >= -0
MCLin2(0,1,1):  -31 y(1,0,1) - u(0,1,1) <= -0
MCLin3(0,1,1):  24 y(1,0,1) + v(0,1,1) - u(0,1,1) <= 24
MCLin4(0,1,1):  24 y(1,0,1) - u(0,1,1) >= -0
MCLin5(0,1,1):  -31 y(1,0,1) + v(0,1,1) - u(0,1,1) >= -31
MCLin6(1,0,1):  u(1,0,1) >= -0
MCLin7(1,0,1):  -33 y(0,1,1) - u(1,0,1) <= -0
MCLin8(1,0,1):  22 y(0,1,1) + v(1,0,1) - u(1,0,1) <= 22
MCLin9(1,0,1):  22 y(0,1,1) - u(1,0,1) >= -0
MCLin10(1,0,1):  -33 y(0,1,1) + v(1,0,1) - u(1,0,1) >= -33
MCLinV(0,1,2):  x(0,2) - v(0,1,2) - x(1,2) = 2
MCLinV(1,0,2):  - x(0,2) - v(1,0,2) + x(1,2) = 2
MCLin1(0,1,2):  u(0,1,2) >= -0
MCLin2(0,1,2):  -27 y(1,0,2) - u(0,1,2) <= -0
MCLin3(0,1,2):  28 y(1,0,2) + v(0,1,2) - u(0,1,2) <= 28
MCLin4(0,1,2):  28 y(1,0,2) - u(0,1,2) >= -0
MCLin5(0,1,2):  -27 y(1,0,2) + v(0,1,2) - u(0,1,2) >= -27
MCLin6(1,0,2):  u(1,0,2) >= -0
MCLin7(1,0,2):  -32 y(0,1,2) - u(1,0,2) <= -0
MCLin8(1,0,2):  23 y(0,1,2) + v(1,0,2) - u(1,0,2) <= 23
MCLin9(1,0,2):  23 y(0,1,2) - u(1,0,2) >= -0
MCLin10(1,0,2):  -32 y(0,1,2) + v(1,0,2) - u(1,0,2) >= -32
MCLinV(0,2,0):  x(0,0) - v(0,2,0) - x(2,0) = 7
MCLinV(2,0,0):  - x(0,0) - v(2,0,0) + x(2,0) = 3
MCLin1(0,2,0):  u(0,2,0) >= -0
MCLin2(0,2,0):  -24 y(2,0,0) - u(0,2,0) <= -0
MCLin3(0,2,0):  18 y(2,0,0) + v(0,2,0) - u(0,2,0) <= 18
MCLin4(0,2,0):  18 y(2,0,0) - u(0,2,0) >= -0
MCLin5(0,2,0):  -24 y(2,0,0) + v(0,2,0) - u(0,2,0) >= -24
MCLin6(2,0,0):  u(2,0,0) >= -0
MCLin7(2,0,0):  -28 y(0,2,0) - u(2,0,0) <= -0
MCLin8(2,0,0):  14 y(0,2,0) + v(2,0,0) - u(2,0,0) <= 14
MCLin9(2,0,0):  14 y(0,2,0) - u(2,0,0) >= -0
MCLin10(2,0,0):  -28 y(0,2,0) + v(2,0,0) - u(2,0,0) >= -28
MCLinV(0,2,1):  x(0,1) - v(0,2,1) - x(2,1) = 9
MCLinV(2,0,1):  - x(0,1) - v(2,0,1) + x(2,1) = 6
MCLin1(0,2,1):  u(0,2,1) >= -0
MCLin2(0,2,1):  -30 y(2,0,1) - u(0,2,1) <= -0
MCLin3(0,2,1):  12 y(2,0,1) + v(0,2,1) - u(0,2,1) <= 12
MCLin4(0,2,1):  12 y(2,0,1) - u(0,2,1) >= -0
MCLin5(0,2,1):  -30 y(2,0,1) + v(0,2,1) - u(0,2,1) >= -30
MCLin6(2,0,1):  u(2,0,1) >= -0
MCLin7(2,0,1):  -27 y(0,2,1) - u(2,0,1) <= -0
MCLin8(2,0,1):  15 y(0,2,1) + v(2,0,1) - u(2,0,1) <= 15
MCLin9(2,0,1):  15 y(0,2,1) - u(2,0,1) >= -0
MCLin10(2,0,1):  -27 y(0,2,1) + v(2,0,1) - u(2,0,1) >= -27
MCLinV(0,2,2):  x(0,2) - v(0,2,2) - x(2,2) = 3
MCLinV(2,0,2):  - x(0,2) - v(2,0,2) + x(2,2) = 2
MCLin1(0,2,2):  u(0,2,2) >= -0
MCLin2(0,2,2):  -27 y(2,0,2) - u(0,2,2) <= -0
MCLin3(0,2,2):  15 y(2,0,2) + v(0,2,2) - u(0,2,2) <= 15
MCLin4(0,2,2):  15 y(2,0,2) - u(0,2,2) >= -0
MCLin5(0,2,2):  -27 y(2,0,2) + v(0,2,2) - u(0,2,2) >= -27
MCLin6(2,0,2):  u(2,0,2) >= -0
MCLin7(2,0,2):  -20 y(0,2,2) - u(2,0,2) <= -0
MCLin8(2,0,2):  22 y(0,2,2) + v(2,0,2) - u(2,0,2) <= 22
MCLin9(2,0,2):  22 y(0,2,2) - u(2,0,2) >= -0
MCLin10(2,0,2):  -20 y(0,2,2) + v(2,0,2) - u(2,0,2) >= -20
MCLinV(1,2,0):  x(1,0) - v(1,2,0) - x(2,0) = 7
MCLinV(2,1,0):  - x(1,0) - v(2,1,0) + x(2,0) = 1
MCLin1(1,2,0):  u(1,2,0) >= -0
MCLin2(1,2,0):  -24 y(2,1,0) - u(1,2,0) <= -0
MCLin3(1,2,0):  23 y(2,1,0) + v(1,2,0) - u(1,2,0) <= 23
MCLin4(1,2,0):  23 y(2,1,0) - u(1,2,0) >= -0
MCLin5(1,2,0):  -24 y(2,1,0) + v(1,2,0) - u(1,2,0) >= -24
MCLin6(2,1,0):  u(2,1,0) >= -0
MCLin7(2,1,0):  -31 y(1,2,0) - u(2,1,0) <= -0
MCLin8(2,1,0):  16 y(1,2,0) + v(2,1,0) - u(2,1,0) <= 16
MCLin9(2,1,0):  16 y(1,2,0) - u(2,1,0) >= -0
MCLin10(2,1,0):  -31 y(1,2,0) + v(2,1,0) - u(2,1,0) >= -31
MCLinV(1,2,1):  x(1,1) - v(1,2,1) - x(2,1) = 9
MCLinV(2,1,1):  - x(1,1) - v(2,1,1) + x(2,1) = 3
MCLin1(1,2,1):  u(1,2,1) >= -0
MCLin2(1,2,1):  -32 y(2,1,1) - u(1,2,1) <= -0
MCLin3(1,2,1):  15 y(2,1,1) + v(1,2,1) - u(1,2,1) <= 15
MCLin4(1,2,1):  15 y(2,1,1) - u(1,2,1) >= -0
MCLin5(1,2,1):  -32 y(2,1,1) + v(1,2,1) - u(1,2,1) >= -32
MCLin6(2,1,1):  u(2,1,1) >= -0
MCLin7(2,1,1):  -27 y(1,2,1) - u(2,1,1) <= -0
MCLin8(2,1,1):  20 y(1,2,1) + v(2,1,1) - u(2,1,1) <= 20
MCLin9(2,1,1):  20 y(1,2,1) - u(2,1,1) >= -0
MCLin10(2,1,1):  -27 y(1,2,1) + v(2,1,1) - u(2,1,1) >= -27
MCLinV(1,2,2):  x(1,2) - v(1,2,2) - x(2,2) = 3
MCLinV(2,1,2):  - x(1,2) - v(2,1,2) + x(2,2) = 2
MCLin1(1,2,2):  u(1,2,2) >= -0
MCLin2(1,2,2):  -32 y(2,1,2) - u(1,2,2) <= -0
MCLin3(1,2,2):  15 y(2,1,2) + v(1,2,2) - u(1,2,2) <= 15
MCLin4(1,2,2):  15 y(2,1,2) - u(1,2,2) >= -0
MCLin5(1,2,2):  -32 y(2,1,2) + v(1,2,2) - u(1,2,2) >= -32
MCLin6(2,1,2):  u(2,1,2) >= -0
MCLin7(2,1,2):  -20 y(1,2,2) - u(2,1,2) <= -0
MCLin8(2,1,2):  27 y(1,2,2) + v(2,1,2) - u(2,1,2) <= 27
MCLin9(2,1,2):  27 y(1,2,2) - u(2,1,2) >= -0
MCLin10(2,1,2):  -20 y(1,2,2) + v(2,1,2) - u(2,1,2) >= -20
makespan(0):  C - x(0,2) >= 2
makespan(1):  C - x(1,2) >= 2
makespan(2):  C - x(2,2) >= 3
Bounds
 0 <= C <= 36
 0 <= x(0,0) <= 25
 0 <= y(0,1,0) <= 1
 0 <= y(1,0,0) <= 1
 -31 <= v(0,1,0) <= 24
 -28 <= v(1,0,0) <= 27
 -360 <= u(0,1,0)
 -360 <= u(1,0,0)
 0 <= y(0,2,0) <= 1
 0 <= y(2,0,0) <= 1
 -24 <= v(0,2,0) <= 18
 -28 <= v(2,0,0) <= 14
 -360 <= u(0,2,0)
 -360 <= u(2,0,0)
 0 <= x(1,0) <= 30
 0 <= y(1,2,0) <= 1
 0 <= y(2,1,0) <= 1
 -24 <= v(1,2,0) <= 23
 -31 <= v(2,1,0) <= 16
 -360 <= u(1,2,0)
 -360 <= u(2,1,0)
 0 <= x(2,0) <= 17
 3 <= x(0,1) <= 28
 0 <= y(0,1,1) <= 1
 0 <= y(1,0,1) <= 1
 -31 <= v(0,1,1) <= 24
 -33 <= v(1,0,1) <= 22
 -360 <= u(0,1,1)
 -360 <= u(1,0,1)
 0 <= y(0,2,1) <= 1
 0 <= y(2,0,1) <= 1
 -30 <= v(0,2,1) <= 12
 -27 <= v(2,0,1) <= 15
 -360 <= u(0,2,1)
 -360 <= u(2,0,1)
 1 <= x(1,1) <= 31
 0 <= y(1,2,1) <= 1
 0 <= y(2,1,1) <= 1
 -32 <= v(1,2,1) <= 15
 -27 <= v(2,1,1) <= 20
 -360 <= u(1,2,1)
 -360 <= u(2,1,1)
 7 <= x(2,1) <= 24
 9 <= x(0,2) <= 34
 0 <= y(0,1,2) <= 1
 0 <= y(1,0,2) <= 1
 -27 <= v(0,1,2) <= 28
 -32 <= v(1,0,2) <= 23
 -360 <= u(0,1,2)
 -360 <= u(1,0,2)
 0 <= y(0,2,2) <= 1
 0 <= y(2,0,2) <= 1
 -27 <= v(0,2,2) <= 15
 -20 <= v(2,0,2) <= 22
 -360 <= u(0,2,2)
 -360 <= u(2,0,2)
 4 <= x(1,2) <= 34
 0 <= y(1,2,2) <= 1
 0 <= y(2,1,2) <= 1
 -32 <= v(1,2,2) <= 15
 -20 <= v(2,1,2) <= 27
 -360 <= u(1,2,2)
 -360 <= u(2,1,2)
 16 <= x(2,2) <= 33
Integers
C x(0,0) y(0,1,0) y(1,0,0) v(0,1,0) v(1,0,0) u(0,1,0) u(1,0,0) y(0,2,0) y(2,0,0) 
v(0,2,0) v(2,0,0) u(0,2,0) u(2,0,0) x(1,0) y(1,2,0) y(2,1,0) v(1,2,0) v(2,1,0) u(1,2,0) 
u(2,1,0) x(2,0) x(0,1) y(0,1,1) y(1,0,1) v(0,1,1) v(1,0,1) u(0,1,1) u(1,0,1) y(0,2,1) 
y(2,0,1) v(0,2,1) v(2,0,1) u(0,2,1) u(2,0,1) x(1,1) y(1,2,1) y(2,1,1) v(1,2,1) v(2,1,1) 
u(1,2,1) u(2,1,1) x(2,1) x(0,2) y(0,1,2) y(1,0,2) v(0,1,2) v(1,0,2) u(0,1,2) u(1,0,2) 
y(0,2,2) y(2,0,2) v(0,2,2) v(2,0,2) u(0,2,2) u(2,0,2) x(1,2) y(1,2,2) y(2,1,2) v(1,2,2) 
v(2,1,2) u(1,2,2) u(2,1,2) x(2,2) 
End
